c A SAT instance generated from a 3-CNF formula that had 39 clauses and 13 variables
p cnf 13 39
13 -4 -7 0
-7 -3 -4 0
-3 9 -10 0
-3 -8 -4 0
13 -9 11 0
5 -13 -7 0
-10 -6 -3 0
12 -8 -3 0
-2 -8 -11 0
7 8 -5 0
11 -8 -3 0
-13 -2 -8 0
1 8 -10 0
-4 -9 12 0
3 8 -12 0
11 1 -4 0
2 4 12 0
-12 4 -1 0
-1 7 5 0
-11 4 -8 0
9 -12 1 0
-10 2 -5 0
-10 -4 -5 0
5 -12 3 0
-6 -1 5 0
13 -3 4 0
7 -8 12 0
-10 9 -3 0
12 -4 8 0
12 6 -11 0
-10 2 -11 0
-6 3 4 0
-11 -12 1 0
-13 7 -11 0
3 -12 13 0
8 4 -7 0
-2 -12 -3 0
6 -11 -5 0
2 7 -13 0
